n = 16;
lu = [|91, 146
      |6, 10
      |-55, 255
      |-180, -108
      |-123, -89
      |-201, -119
      |-97, -90
      |-153, 36
      |-220, -153
      |-57, 22
      |120, 155
      |-206, -44
      |117, 131
      |-53, 81
      |-103, 213
      |150, 171|];
